37368 38762 
38058 38344 
37673 38752 
37695 38529 
37761 38384 
38213 38195 
38657 38156 
39316 37406 
39171 37902 
39528 37187 
39742 36858 
39937 35911 
40108 35618 
40130 35395 
39885 36178 
39907 35955 
39749 36221 
